10
1 0 30
2 0 9
2 1 36
3 0 3
3 1 10
3 2 12
4 0 30
4 1 14
4 2 15
4 3 3
5 0 13
5 1 3
5 2 32
5 3 31
5 4 28
6 0 6
6 1 17
6 2 7
6 3 22
6 4 23
6 5 4
7 0 26
7 1 32
7 2 38
7 3 34
7 4 21
7 5 31
7 6 4
8 0 33
8 1 11
8 2 40
8 3 18
8 4 9
8 5 31
8 6 26
8 7 12
9 0 16
9 1 35
9 2 4
9 3 14
9 4 36
9 5 13
9 6 31
9 7 13
9 8 20
